C N H Pb I                              
   1.00000000000000     
    12.5742528489638623    0.0008539027605580    0.1375235402401382
     0.0001416033437368   12.4740960785763040   -0.0008353124080622
     0.1385947986306366   -0.0000131954369138   12.7566619238330698
   C    N    H    Pb   I 
     8     8    48     8    25
Direct
  0.1935570173831314  0.2510991227802321  0.3103589386285795
  0.7030923997607557  0.2819388802544791  0.2399868762699575
  0.1933333658895136  0.7489512874835732  0.3104116698963029
  0.7030199373425068  0.7180788390181334  0.2401299324110632
  0.2073819579282379  0.2432535043420325  0.7119776063792015
  0.6938280845766963  0.2725869885202092  0.6992655527244165
  0.2074444452494904  0.7566997063602822  0.7120699023811831
  0.6937654593657688  0.7271032952139144  0.6993765816632294
  0.2939328299056334  0.2591147815998184  0.2482163028910520
  0.8029089386462558  0.2197058432830054  0.2457887172220965
  0.2937946781021427  0.7405284468742676  0.2484575566210523
  0.8027273982358087  0.7805107941084029  0.2456337589910502
  0.3139819828596565  0.2345979131497932  0.7580468011094701
  0.7673548945524061  0.2690962648875158  0.7882536930157444
  0.3140590052626576  0.7652453280039522  0.7581261433408611
  0.7672280411042282  0.7309789809995153  0.7884015924308775
  0.1459553398931136  0.1845335407267984  0.2797139447315703
  0.6629400588712104  0.2603810680312581  0.1671637052452202
  0.1459846888618354  0.8156136151595427  0.2795797315293936
  0.6628447652419712  0.7391514421632760  0.1671854062906118
  0.2160722961304885  0.2449049584362133  0.6261448142417892
  0.7404841334703847  0.2712070265847805  0.6253571803721709
  0.2161321730685169  0.7549409437816176  0.6262394739579042
  0.7404655906904687  0.7282458057165584  0.6254916577686560
  0.1495605783280708  0.3269071122246942  0.3038508862423365
  0.7224050595348923  0.3677978718386105  0.2396231581072385
  0.2120711981988359  0.7643885372386569  0.3927626251204508
  0.6520383003872973  0.7373876772789761  0.3086735024129462
  0.1696496409053956  0.3176053605260151  0.7403634775054498
  0.6468129144767996  0.3467835572457929  0.7046053134610176
  0.1599994395134060  0.8265612022646945  0.7368633269848490
  0.6405116620744157  0.7969786141503721  0.7038652964413417
  0.2124076850560943  0.2357377260952558  0.3926941707990009
  0.6521702600310967  0.2629293109970868  0.3086460708042184
  0.1491269978840338  0.6732704915505280  0.3039292762990122
  0.7224817735504003  0.6322510443297160  0.2402392354521463
  0.1598409422165969  0.1734894671998504  0.7368312673739613
  0.6406345576502930  0.2026879322296989  0.7040280279216709
  0.1696157197428672  0.6824352737464602  0.7405249383743183
  0.6468090143466736  0.6528910967788182  0.7049460104135065
  0.2786176942433500  0.2784045381452846  0.1695269428749897
  0.8520199650429515  0.2340781742960880  0.1794811016567500
  0.3360647242372102  0.8127465874707843  0.2490945343999542
  0.7875223068130456  0.8624927974363792  0.2465641716008272
  0.3618366276498957  0.2996142565606224  0.7362108845586862
  0.8209724636307544  0.3331936735406941  0.7861796341621682
  0.3539738026994662  0.8355877302245832  0.7366353872693540
  0.8112909768908281  0.8018993391812310  0.7884831815082651
  0.3360165967992152  0.1867782877393000  0.2488807602925935
  0.7878453502811814  0.1377063041191383  0.2472214685395310
  0.2785709860194367  0.7211769408690037  0.1697650476279295
  0.8518990337660577  0.7658527450933303  0.1794267798980770
  0.3538202888958039  0.1641934363215868  0.7365960465327795
  0.8114599462967038  0.1982004292926528  0.7885400684379561
  0.3618404556105125  0.7001506904398872  0.7363232380830008
  0.8208837825015298  0.6669064299098894  0.7865756099977556
  0.3435385852706007  0.3193188410925368  0.2758590285734508
  0.8455204332241462  0.2376585750611733  0.3130669274186867
  0.3431944305790420  0.6802369975686041  0.2762741892970228
  0.8453304080092455  0.7630023102547324  0.3130307714900613
  0.3076132519056117  0.2366740965553099  0.8399581670209620
  0.7254859250077275  0.2741781446658232  0.8596813623547178
  0.3077000314175618  0.7632331793943853  0.8400377996627236
  0.7252955562348716  0.7261385953774239  0.8598126392679477
  0.4772987757513768  0.9999643174828975  0.4789599923034664
  0.9731702120268527  0.0000289091351447  0.4990643609469306
  0.4782120359354254  0.4999387162126313  0.4872548290334992
  0.9769882216884411  0.5000722461867468  0.4987367204998633
  0.4810185176599621  0.9999430350681863  0.9871685494579829
  0.9731539093168929 -0.0000067220605156  0.9957381065066263
  0.4698803161485912  0.4999012829817802  0.9854515782576763
  0.0346243933273318  0.4999879946182319  0.0025513958652616
  0.4171566255040581  0.9997836707536464  0.2320516120131125
  0.0023598212617189  0.0000597085090560  0.2478575181248361
  0.4579372685363154  0.4998318324500025  0.2399359930739445
  0.9770452930151068  0.4999705288521255  0.2405553212806468
  0.4921271916512512  0.9998968480368501  0.7277731954501959
  0.8990949068385385 -0.0000120359735979  0.7519231581013900
  0.4400295109705630  0.4999150021113719  0.7379121624534347
  0.9532372784926534  0.5000607003214882  0.7477085927547445
  0.5293779449252358  0.2461417179913542  0.9595337384073942
  0.9352850577023548  0.2521017214731819  0.0011860011066162
  0.5293613389272900  0.7537420457927162  0.9596285250742196
  0.9353189404207271  0.7478562699603346  0.0011764806281801
  0.4521128112015185  0.2495463383975936  0.4902830274115753
  0.9448702790476877  0.2496615097433499  0.4906650260795625
  0.4523012330995980  0.7503581945288412  0.4902522304991389
  0.9444584559441184  0.7504402338580851  0.4905551426131534
  0.2165676164645750  0.9999288131742384  0.5248965942021756
  0.7185527805693256  0.0001686265702576  0.4247232125166276
  0.2200571859410689  0.5001811693081613  0.4976841766454316
  0.7208268182018657  0.4997743337660844  0.4728736205982148
  0.2295103209997957 -0.0000082047598939  0.9394922765179110
  0.7253143931028889  0.0000096265492070  0.0681390497516095
  0.2357704127670939  0.3472991149258735 -0.0018011069749357
  0.2357887975244576  0.6526035693120762 -0.0017049689773745
  0.7149550593210119  0.4999444808325573  0.9727268922522765
 
  0.00000000E+00  0.00000000E+00  0.00000000E+00
  0.00000000E+00  0.00000000E+00  0.00000000E+00
  0.00000000E+00  0.00000000E+00  0.00000000E+00
  0.00000000E+00  0.00000000E+00  0.00000000E+00
  0.00000000E+00  0.00000000E+00  0.00000000E+00
  0.00000000E+00  0.00000000E+00  0.00000000E+00
  0.00000000E+00  0.00000000E+00  0.00000000E+00
  0.00000000E+00  0.00000000E+00  0.00000000E+00
  0.00000000E+00  0.00000000E+00  0.00000000E+00
  0.00000000E+00  0.00000000E+00  0.00000000E+00
  0.00000000E+00  0.00000000E+00  0.00000000E+00
  0.00000000E+00  0.00000000E+00  0.00000000E+00
  0.00000000E+00  0.00000000E+00  0.00000000E+00
  0.00000000E+00  0.00000000E+00  0.00000000E+00
  0.00000000E+00  0.00000000E+00  0.00000000E+00
  0.00000000E+00  0.00000000E+00  0.00000000E+00
  0.00000000E+00  0.00000000E+00  0.00000000E+00
  0.00000000E+00  0.00000000E+00  0.00000000E+00
  0.00000000E+00  0.00000000E+00  0.00000000E+00
  0.00000000E+00  0.00000000E+00  0.00000000E+00
  0.00000000E+00  0.00000000E+00  0.00000000E+00
  0.00000000E+00  0.00000000E+00  0.00000000E+00
  0.00000000E+00  0.00000000E+00  0.00000000E+00
  0.00000000E+00  0.00000000E+00  0.00000000E+00
  0.00000000E+00  0.00000000E+00  0.00000000E+00
  0.00000000E+00  0.00000000E+00  0.00000000E+00
  0.00000000E+00  0.00000000E+00  0.00000000E+00
  0.00000000E+00  0.00000000E+00  0.00000000E+00
  0.00000000E+00  0.00000000E+00  0.00000000E+00
  0.00000000E+00  0.00000000E+00  0.00000000E+00
  0.00000000E+00  0.00000000E+00  0.00000000E+00
  0.00000000E+00  0.00000000E+00  0.00000000E+00
  0.00000000E+00  0.00000000E+00  0.00000000E+00
  0.00000000E+00  0.00000000E+00  0.00000000E+00
  0.00000000E+00  0.00000000E+00  0.00000000E+00
  0.00000000E+00  0.00000000E+00  0.00000000E+00
  0.00000000E+00  0.00000000E+00  0.00000000E+00
  0.00000000E+00  0.00000000E+00  0.00000000E+00
  0.00000000E+00  0.00000000E+00  0.00000000E+00
  0.00000000E+00  0.00000000E+00  0.00000000E+00
  0.00000000E+00  0.00000000E+00  0.00000000E+00
  0.00000000E+00  0.00000000E+00  0.00000000E+00
  0.00000000E+00  0.00000000E+00  0.00000000E+00
  0.00000000E+00  0.00000000E+00  0.00000000E+00
  0.00000000E+00  0.00000000E+00  0.00000000E+00
  0.00000000E+00  0.00000000E+00  0.00000000E+00
  0.00000000E+00  0.00000000E+00  0.00000000E+00
  0.00000000E+00  0.00000000E+00  0.00000000E+00
  0.00000000E+00  0.00000000E+00  0.00000000E+00
  0.00000000E+00  0.00000000E+00  0.00000000E+00
  0.00000000E+00  0.00000000E+00  0.00000000E+00
  0.00000000E+00  0.00000000E+00  0.00000000E+00
  0.00000000E+00  0.00000000E+00  0.00000000E+00
  0.00000000E+00  0.00000000E+00  0.00000000E+00
  0.00000000E+00  0.00000000E+00  0.00000000E+00
  0.00000000E+00  0.00000000E+00  0.00000000E+00
  0.00000000E+00  0.00000000E+00  0.00000000E+00
  0.00000000E+00  0.00000000E+00  0.00000000E+00
  0.00000000E+00  0.00000000E+00  0.00000000E+00
  0.00000000E+00  0.00000000E+00  0.00000000E+00
  0.00000000E+00  0.00000000E+00  0.00000000E+00
  0.00000000E+00  0.00000000E+00  0.00000000E+00
  0.00000000E+00  0.00000000E+00  0.00000000E+00
  0.00000000E+00  0.00000000E+00  0.00000000E+00
  0.00000000E+00  0.00000000E+00  0.00000000E+00
  0.00000000E+00  0.00000000E+00  0.00000000E+00
  0.00000000E+00  0.00000000E+00  0.00000000E+00
  0.00000000E+00  0.00000000E+00  0.00000000E+00
  0.00000000E+00  0.00000000E+00  0.00000000E+00
  0.00000000E+00  0.00000000E+00  0.00000000E+00
  0.00000000E+00  0.00000000E+00  0.00000000E+00
  0.00000000E+00  0.00000000E+00  0.00000000E+00
  0.00000000E+00  0.00000000E+00  0.00000000E+00
  0.00000000E+00  0.00000000E+00  0.00000000E+00
  0.00000000E+00  0.00000000E+00  0.00000000E+00
  0.00000000E+00  0.00000000E+00  0.00000000E+00
  0.00000000E+00  0.00000000E+00  0.00000000E+00
  0.00000000E+00  0.00000000E+00  0.00000000E+00
  0.00000000E+00  0.00000000E+00  0.00000000E+00
  0.00000000E+00  0.00000000E+00  0.00000000E+00
  0.00000000E+00  0.00000000E+00  0.00000000E+00
  0.00000000E+00  0.00000000E+00  0.00000000E+00
  0.00000000E+00  0.00000000E+00  0.00000000E+00
  0.00000000E+00  0.00000000E+00  0.00000000E+00
  0.00000000E+00  0.00000000E+00  0.00000000E+00
  0.00000000E+00  0.00000000E+00  0.00000000E+00
  0.00000000E+00  0.00000000E+00  0.00000000E+00
  0.00000000E+00  0.00000000E+00  0.00000000E+00
  0.00000000E+00  0.00000000E+00  0.00000000E+00
  0.00000000E+00  0.00000000E+00  0.00000000E+00
  0.00000000E+00  0.00000000E+00  0.00000000E+00
  0.00000000E+00  0.00000000E+00  0.00000000E+00
  0.00000000E+00  0.00000000E+00  0.00000000E+00
  0.00000000E+00  0.00000000E+00  0.00000000E+00
  0.00000000E+00  0.00000000E+00  0.00000000E+00
  0.00000000E+00  0.00000000E+00  0.00000000E+00
  0.00000000E+00  0.00000000E+00  0.00000000E+00
